Optimal - objective value 5.00000000
      0 x_0_1                   1                       0
      2 x_1_2                   1                       1
      4 x_2_3                   1                       1
      6 x_3_7                   1                       1
     13 x_7_11                  1                       1
     24 f_0_1     3.00000000000263                       0
     28 f_1_2                   2                       0
     32 f_2_3     1.00000000000395                       0
     36 f_3_7     2.00000000000197                       0
     37 f_7_3     0.999999999998025                       0
     50 f_7_11    2.00000000000066                       0
     51 f_11_7    0.999999999999342                       0
